10	5
0	6	3	2	5	1	4	6
1	3	7	8	10
2	1	11
3	0
4	1	9
5	2	10	7
6	2	8	7
7	1	11
8	1	11
9	1	11
10	1	11
11	0
0	0	0	0	0	0	0
1	3	3	4	5	3	2
2	6	4	5	1	2	3
3	7	1	2	2	3	2
4	6	3	2	4	5	2
5	4	5	5	4	3	3
6	5	3	4	1	1	5
7	10	2	2	2	1	5
8	6	4	4	5	2	1
9	2	2	4	5	2	5
10	3	4	1	2	1	1
11	0	0	0	0	0	0
5	5	5	5	5
